param n := 2;

param m := 2;

param K := 500;

param a :=
1 	 0.879998
2 	 0.903842
;
 param A :=
[1, *, *]:  1	2	:=
1	0.325440	-0.495267	
2	-0.459583	0.709796	

[2, *, *]:  1	2	:=
1	0.055429	0.144977	
2	0.604322	0.466285	
;